NAME : h20
COMMENT : H 20
TYPE : TSP
DIMENSION : 20
EDGE_WEIGHT_TYPE : ATT
NODE_COORD_SECTION
1 1 1
2 1 2
3 1 3
4 1 4
5 2 1
6 2 2
7 2 3
8 2 4
9 3 1
10 3 2
11 3 3
12 3 4
13 4 1
14 4 2
15 4 3
16 4 4
17 5 1
18 5 2
19 5 3
20 5 4
EOF
